7 41 44 143 48 146 69 56 167 186 27 
81 92 123 26 125 114 118 127 82 
196 115 34 95 136 6 58 22 174 83 
87 55 72 54 98 62 194 47 96 91 
132 158 120 1 16 33 144 43 74 77 
15 57 152 60 100 178 189 183 105 45 197 
147 199 3 137 131 195 182 154 78 61 
149 30 113 21 171 122 53 88 40 102 
18 150 67 86 133 109 39 23 29 65 52 
188 184 135 89 151 175 134 103 156 49 28 110 
63 36 139 165 138 90 32 159 200 24 75 
4 157 5 117 14 176 181 101 9 141 119 
168 51 50 68 64 160 25 37 164 
73 20 13 80 130 116 11 79 172 148 59 
46 71 12 19 170 192 97 10 198 108 
145 106 163 104 38 121 142 111 70 
140 112 161 2 187 162 76 129 179 190 107 
155 93 166 193 124 31 126 42 128 
85 66 185 169 17 
173 35 99 84 177 191 
153 94 180 
8 

